(set-logic QF_LRA)
(declare-fun T1 () Real )
(declare-fun T2 () Real )
(declare-fun T3 () Real )
(declare-fun T4 () Real )
(declare-fun T5 () Real )
(declare-fun T6 () Real )
(declare-fun Z () Real )
(declare-fun k () Real )
(assert (let
(( $goal (>= Z k) ))
(let
((
$phi ( and 
(or ( <= ( + T1 23 ) T2 ) ( <= ( + T2 7 ) T1 ) )
(or ( <= ( + T1 31 )  ( + T2 7 ) ) ( <= ( + T2 21 )( + T1 23 ) ) )
(or ( <= ( + T1 40 )  ( + T2 21 ) ) ( <= ( + T2 64 )( + T1 31 ) ) )
(or ( <= ( + T1 134 )  ( + T2 64 ) ) ( <= ( + T2 150 )( + T1 40 ) ) )
(or ( <= ( + T1 202 )  ( + T2 150 ) ) ( <= ( + T2 201 )( + T1 134 ) ) )
(or ( <= ( + T1 251 )  ( + T2 201 ) ) ( <= ( + T2 264 )( + T1 202 ) ) )
(or ( <= ( + T1 324 )  ( + T2 264 ) ) ( <= ( + T2 331 )( + T1 251 ) ) )
(or ( <= ( + T1 341 )  ( + T2 331 ) ) ( <= ( + T2 332 )( + T1 324 ) ) )
(or ( <= ( + T1 23 ) T3 ) ( <= ( + T3 79 ) T1 ) )
(or ( <= ( + T1 31 )  ( + T3 79 ) ) ( <= ( + T3 147 )( + T1 23 ) ) )
(or ( <= ( + T1 40 )  ( + T3 147 ) ) ( <= ( + T3 245 )( + T1 31 ) ) )
(or ( <= ( + T1 134 )  ( + T3 245 ) ) ( <= ( + T3 312 )( + T1 40 ) ) )
(or ( <= ( + T1 202 )  ( + T3 312 ) ) ( <= ( + T3 408 )( + T1 134 ) ) )
(or ( <= ( + T1 251 )  ( + T3 408 ) ) ( <= ( + T3 437 )( + T1 202 ) ) )
(or ( <= ( + T1 324 )  ( + T3 437 ) ) ( <= ( + T3 463 )( + T1 251 ) ) )
(or ( <= ( + T1 341 )  ( + T3 463 ) ) ( <= ( + T3 534 )( + T1 324 ) ) )
(or ( <= ( + T1 23 ) T4 ) ( <= ( + T4 62 ) T1 ) )
(or ( <= ( + T1 31 )  ( + T4 62 ) ) ( <= ( + T4 142 )( + T1 23 ) ) )
(or ( <= ( + T1 40 )  ( + T4 142 ) ) ( <= ( + T4 155 )( + T1 31 ) ) )
(or ( <= ( + T1 134 )  ( + T4 155 ) ) ( <= ( + T4 253 )( + T1 40 ) ) )
(or ( <= ( + T1 202 )  ( + T4 253 ) ) ( <= ( + T4 269 )( + T1 134 ) ) )
(or ( <= ( + T1 251 )  ( + T4 269 ) ) ( <= ( + T4 357 )( + T1 202 ) ) )
(or ( <= ( + T1 324 )  ( + T4 357 ) ) ( <= ( + T4 404 )( + T1 251 ) ) )
(or ( <= ( + T1 341 )  ( + T4 404 ) ) ( <= ( + T4 442 )( + T1 324 ) ) )
(or ( <= ( + T1 23 ) T5 ) ( <= ( + T5 47 ) T1 ) )
(or ( <= ( + T1 31 )  ( + T5 47 ) ) ( <= ( + T5 54 )( + T1 23 ) ) )
(or ( <= ( + T1 40 )  ( + T5 54 ) ) ( <= ( + T5 137 )( + T1 31 ) ) )
(or ( <= ( + T1 134 )  ( + T5 137 ) ) ( <= ( + T5 203 )( + T1 40 ) ) )
(or ( <= ( + T1 202 )  ( + T5 203 ) ) ( <= ( + T5 258 )( + T1 134 ) ) )
(or ( <= ( + T1 251 )  ( + T5 258 ) ) ( <= ( + T5 314 )( + T1 202 ) ) )
(or ( <= ( + T1 324 )  ( + T5 314 ) ) ( <= ( + T5 348 )( + T1 251 ) ) )
(or ( <= ( + T1 341 )  ( + T5 348 ) ) ( <= ( + T5 410 )( + T1 324 ) ) )
(or ( <= ( + T1 23 ) T6 ) ( <= ( + T6 21 ) T1 ) )
(or ( <= ( + T1 31 )  ( + T6 21 ) ) ( <= ( + T6 98 )( + T1 23 ) ) )
(or ( <= ( + T1 40 )  ( + T6 98 ) ) ( <= ( + T6 145 )( + T1 31 ) ) )
(or ( <= ( + T1 134 )  ( + T6 145 ) ) ( <= ( + T6 168 )( + T1 40 ) ) )
(or ( <= ( + T1 202 )  ( + T6 168 ) ) ( <= ( + T6 207 )( + T1 134 ) ) )
(or ( <= ( + T1 251 )  ( + T6 207 ) ) ( <= ( + T6 272 )( + T1 202 ) ) )
(or ( <= ( + T1 324 )  ( + T6 272 ) ) ( <= ( + T6 348 )( + T1 251 ) ) )
(or ( <= ( + T1 341 )  ( + T6 348 ) ) ( <= ( + T6 417 )( + T1 324 ) ) )
(or ( <= ( + T2 7 ) T3 ) ( <= ( + T3 79 ) T2 ) )
(or ( <= ( + T2 21 )  ( + T3 79 ) ) ( <= ( + T3 147 )( + T2 7 ) ) )
(or ( <= ( + T2 64 )  ( + T3 147 ) ) ( <= ( + T3 245 )( + T2 21 ) ) )
(or ( <= ( + T2 150 )  ( + T3 245 ) ) ( <= ( + T3 312 )( + T2 64 ) ) )
(or ( <= ( + T2 201 )  ( + T3 312 ) ) ( <= ( + T3 408 )( + T2 150 ) ) )
(or ( <= ( + T2 264 )  ( + T3 408 ) ) ( <= ( + T3 437 )( + T2 201 ) ) )
(or ( <= ( + T2 331 )  ( + T3 437 ) ) ( <= ( + T3 463 )( + T2 264 ) ) )
(or ( <= ( + T2 332 )  ( + T3 463 ) ) ( <= ( + T3 534 )( + T2 331 ) ) )
(or ( <= ( + T2 7 ) T4 ) ( <= ( + T4 62 ) T2 ) )
(or ( <= ( + T2 21 )  ( + T4 62 ) ) ( <= ( + T4 142 )( + T2 7 ) ) )
(or ( <= ( + T2 64 )  ( + T4 142 ) ) ( <= ( + T4 155 )( + T2 21 ) ) )
(or ( <= ( + T2 150 )  ( + T4 155 ) ) ( <= ( + T4 253 )( + T2 64 ) ) )
(or ( <= ( + T2 201 )  ( + T4 253 ) ) ( <= ( + T4 269 )( + T2 150 ) ) )
(or ( <= ( + T2 264 )  ( + T4 269 ) ) ( <= ( + T4 357 )( + T2 201 ) ) )
(or ( <= ( + T2 331 )  ( + T4 357 ) ) ( <= ( + T4 404 )( + T2 264 ) ) )
(or ( <= ( + T2 332 )  ( + T4 404 ) ) ( <= ( + T4 442 )( + T2 331 ) ) )
(or ( <= ( + T2 7 ) T5 ) ( <= ( + T5 47 ) T2 ) )
(or ( <= ( + T2 21 )  ( + T5 47 ) ) ( <= ( + T5 54 )( + T2 7 ) ) )
(or ( <= ( + T2 64 )  ( + T5 54 ) ) ( <= ( + T5 137 )( + T2 21 ) ) )
(or ( <= ( + T2 150 )  ( + T5 137 ) ) ( <= ( + T5 203 )( + T2 64 ) ) )
(or ( <= ( + T2 201 )  ( + T5 203 ) ) ( <= ( + T5 258 )( + T2 150 ) ) )
(or ( <= ( + T2 264 )  ( + T5 258 ) ) ( <= ( + T5 314 )( + T2 201 ) ) )
(or ( <= ( + T2 331 )  ( + T5 314 ) ) ( <= ( + T5 348 )( + T2 264 ) ) )
(or ( <= ( + T2 332 )  ( + T5 348 ) ) ( <= ( + T5 410 )( + T2 331 ) ) )
(or ( <= ( + T2 7 ) T6 ) ( <= ( + T6 21 ) T2 ) )
(or ( <= ( + T2 21 )  ( + T6 21 ) ) ( <= ( + T6 98 )( + T2 7 ) ) )
(or ( <= ( + T2 64 )  ( + T6 98 ) ) ( <= ( + T6 145 )( + T2 21 ) ) )
(or ( <= ( + T2 150 )  ( + T6 145 ) ) ( <= ( + T6 168 )( + T2 64 ) ) )
(or ( <= ( + T2 201 )  ( + T6 168 ) ) ( <= ( + T6 207 )( + T2 150 ) ) )
(or ( <= ( + T2 264 )  ( + T6 207 ) ) ( <= ( + T6 272 )( + T2 201 ) ) )
(or ( <= ( + T2 331 )  ( + T6 272 ) ) ( <= ( + T6 348 )( + T2 264 ) ) )
(or ( <= ( + T2 332 )  ( + T6 348 ) ) ( <= ( + T6 417 )( + T2 331 ) ) )
(or ( <= ( + T3 79 ) T4 ) ( <= ( + T4 62 ) T3 ) )
(or ( <= ( + T3 147 )  ( + T4 62 ) ) ( <= ( + T4 142 )( + T3 79 ) ) )
(or ( <= ( + T3 245 )  ( + T4 142 ) ) ( <= ( + T4 155 )( + T3 147 ) ) )
(or ( <= ( + T3 312 )  ( + T4 155 ) ) ( <= ( + T4 253 )( + T3 245 ) ) )
(or ( <= ( + T3 408 )  ( + T4 253 ) ) ( <= ( + T4 269 )( + T3 312 ) ) )
(or ( <= ( + T3 437 )  ( + T4 269 ) ) ( <= ( + T4 357 )( + T3 408 ) ) )
(or ( <= ( + T3 463 )  ( + T4 357 ) ) ( <= ( + T4 404 )( + T3 437 ) ) )
(or ( <= ( + T3 534 )  ( + T4 404 ) ) ( <= ( + T4 442 )( + T3 463 ) ) )
(or ( <= ( + T3 79 ) T5 ) ( <= ( + T5 47 ) T3 ) )
(or ( <= ( + T3 147 )  ( + T5 47 ) ) ( <= ( + T5 54 )( + T3 79 ) ) )
(or ( <= ( + T3 245 )  ( + T5 54 ) ) ( <= ( + T5 137 )( + T3 147 ) ) )
(or ( <= ( + T3 312 )  ( + T5 137 ) ) ( <= ( + T5 203 )( + T3 245 ) ) )
(or ( <= ( + T3 408 )  ( + T5 203 ) ) ( <= ( + T5 258 )( + T3 312 ) ) )
(or ( <= ( + T3 437 )  ( + T5 258 ) ) ( <= ( + T5 314 )( + T3 408 ) ) )
(or ( <= ( + T3 463 )  ( + T5 314 ) ) ( <= ( + T5 348 )( + T3 437 ) ) )
(or ( <= ( + T3 534 )  ( + T5 348 ) ) ( <= ( + T5 410 )( + T3 463 ) ) )
(or ( <= ( + T3 79 ) T6 ) ( <= ( + T6 21 ) T3 ) )
(or ( <= ( + T3 147 )  ( + T6 21 ) ) ( <= ( + T6 98 )( + T3 79 ) ) )
(or ( <= ( + T3 245 )  ( + T6 98 ) ) ( <= ( + T6 145 )( + T3 147 ) ) )
(or ( <= ( + T3 312 )  ( + T6 145 ) ) ( <= ( + T6 168 )( + T3 245 ) ) )
(or ( <= ( + T3 408 )  ( + T6 168 ) ) ( <= ( + T6 207 )( + T3 312 ) ) )
(or ( <= ( + T3 437 )  ( + T6 207 ) ) ( <= ( + T6 272 )( + T3 408 ) ) )
(or ( <= ( + T3 463 )  ( + T6 272 ) ) ( <= ( + T6 348 )( + T3 437 ) ) )
(or ( <= ( + T3 534 )  ( + T6 348 ) ) ( <= ( + T6 417 )( + T3 463 ) ) )
(or ( <= ( + T4 62 ) T5 ) ( <= ( + T5 47 ) T4 ) )
(or ( <= ( + T4 142 )  ( + T5 47 ) ) ( <= ( + T5 54 )( + T4 62 ) ) )
(or ( <= ( + T4 155 )  ( + T5 54 ) ) ( <= ( + T5 137 )( + T4 142 ) ) )
(or ( <= ( + T4 253 )  ( + T5 137 ) ) ( <= ( + T5 203 )( + T4 155 ) ) )
(or ( <= ( + T4 269 )  ( + T5 203 ) ) ( <= ( + T5 258 )( + T4 253 ) ) )
(or ( <= ( + T4 357 )  ( + T5 258 ) ) ( <= ( + T5 314 )( + T4 269 ) ) )
(or ( <= ( + T4 404 )  ( + T5 314 ) ) ( <= ( + T5 348 )( + T4 357 ) ) )
(or ( <= ( + T4 442 )  ( + T5 348 ) ) ( <= ( + T5 410 )( + T4 404 ) ) )
(or ( <= ( + T4 62 ) T6 ) ( <= ( + T6 21 ) T4 ) )
(or ( <= ( + T4 142 )  ( + T6 21 ) ) ( <= ( + T6 98 )( + T4 62 ) ) )
(or ( <= ( + T4 155 )  ( + T6 98 ) ) ( <= ( + T6 145 )( + T4 142 ) ) )
(or ( <= ( + T4 253 )  ( + T6 145 ) ) ( <= ( + T6 168 )( + T4 155 ) ) )
(or ( <= ( + T4 269 )  ( + T6 168 ) ) ( <= ( + T6 207 )( + T4 253 ) ) )
(or ( <= ( + T4 357 )  ( + T6 207 ) ) ( <= ( + T6 272 )( + T4 269 ) ) )
(or ( <= ( + T4 404 )  ( + T6 272 ) ) ( <= ( + T6 348 )( + T4 357 ) ) )
(or ( <= ( + T4 442 )  ( + T6 348 ) ) ( <= ( + T6 417 )( + T4 404 ) ) )
(or ( <= ( + T5 47 ) T6 ) ( <= ( + T6 21 ) T5 ) )
(or ( <= ( + T5 54 )  ( + T6 21 ) ) ( <= ( + T6 98 )( + T5 47 ) ) )
(or ( <= ( + T5 137 )  ( + T6 98 ) ) ( <= ( + T6 145 )( + T5 54 ) ) )
(or ( <= ( + T5 203 )  ( + T6 145 ) ) ( <= ( + T6 168 )( + T5 137 ) ) )
(or ( <= ( + T5 258 )  ( + T6 168 ) ) ( <= ( + T6 207 )( + T5 203 ) ) )
(or ( <= ( + T5 314 )  ( + T6 207 ) ) ( <= ( + T6 272 )( + T5 258 ) ) )
(or ( <= ( + T5 348 )  ( + T6 272 ) ) ( <= ( + T6 348 )( + T5 314 ) ) )
(or ( <= ( + T5 410 )  ( + T6 348 ) ) ( <= ( + T6 417 )( + T5 348 ) ) )
( <= ( + T1 341 ) Z)
( <= ( + T2 332 ) Z)
( <= ( + T3 534 ) Z)
( <= ( + T4 442 ) Z)
( <= ( + T5 410 ) Z)
( <= ( + T6 417 ) Z)
( >= T1 0 )
( >= T2 0 )
( >= T3 0 )
( >= T4 0 )
( >= T5 0 )
( >= T6 0 )
) )
)(=> $phi $goal))))